(set-logic QF_UF)
(declare-fun A0 () Bool)
(declare-fun A1 () Bool)
(declare-fun A2 () Bool)
(declare-fun A3 () Bool)
(declare-fun A4 () Bool)
(declare-fun A5 () Bool)
(declare-fun A6 () Bool)
(declare-fun A7 () Bool)
(declare-fun A8 () Bool)
(declare-fun A9 () Bool)
(declare-fun A11 () Bool)
(declare-fun A12 () Bool)
(declare-fun A13 () Bool)
(declare-fun A14 () Bool)
(declare-fun A15 () Bool)
(declare-fun A16 () Bool)
(declare-fun A17 () Bool)
(declare-fun A18 () Bool)
(declare-fun A19 () Bool)
(declare-fun A20 () Bool)
(declare-fun A21 () Bool)
(declare-fun A22 () Bool)
(declare-fun A23 () Bool)
(declare-fun A24 () Bool)
(assert (let ((.def_0 (not A20))) (let ((.def_1 (not A24))) (let ((.def_2 (and .def_1 .def_0))) (let ((.def_3 (not A7))) (let ((.def_4 (not A23))) (let ((.def_5 (= .def_4 .def_3))) (let ((.def_6 (not .def_5))) (let ((.def_7 (or .def_6 .def_2))) (let ((.def_8 (and A11 A20))) (let ((.def_9 (not .def_8))) (let ((.def_10 (and A1 A1))) (let ((.def_11 (not .def_10))) (let ((.def_12 (or .def_11 .def_9))) (let ((.def_13 (or .def_12 .def_7))) (let ((.def_14 (not .def_13))) (let ((.def_15 (= A9 .def_0))) (let ((.def_16 (not A11))) (let ((.def_17 (or .def_16 A2))) (let ((.def_18 (not .def_17))) (let ((.def_19 (and .def_18 .def_15))) (let ((.def_20 (or A6 A8))) (let ((.def_21 (not A6))) (let ((.def_22 (not A9))) (let ((.def_23 (and .def_22 .def_21))) (let ((.def_24 (or .def_23 .def_20))) (let ((.def_25 (not .def_24))) (let ((.def_26 (and .def_25 .def_19))) (let ((.def_27 (not .def_26))) (let ((.def_28 (and .def_27 .def_14))) (let ((.def_29 (or A5 A2))) (let ((.def_30 (not .def_29))) (let ((.def_31 (not A2))) (let ((.def_32 (= .def_31 A14))) (let ((.def_33 (not .def_32))) (let ((.def_34 (and .def_33 .def_30))) (let ((.def_35 (not A5))) (let ((.def_36 (and A2 .def_35))) (let ((.def_37 (not A12))) (let ((.def_38 (and .def_37 .def_35))) (let ((.def_39 (not .def_38))) (let ((.def_40 (and .def_39 .def_36))) (let ((.def_41 (= .def_40 .def_34))) (let ((.def_42 (not .def_41))) (let ((.def_43 (not A18))) (let ((.def_44 (and A3 .def_43))) (let ((.def_45 (not A13))) (let ((.def_46 (and .def_45 A6))) (let ((.def_47 (= .def_46 .def_44))) (let ((.def_48 (not .def_47))) (let ((.def_49 (= .def_22 .def_4))) (let ((.def_50 (not .def_49))) (let ((.def_51 (= A1 A4))) (let ((.def_52 (= .def_51 .def_50))) (let ((.def_53 (or .def_52 .def_48))) (let ((.def_54 (not .def_53))) (let ((.def_55 (and .def_54 .def_42))) (let ((.def_56 (and .def_55 .def_28))) (let ((.def_57 (and .def_31 .def_45))) (let ((.def_58 (not A1))) (let ((.def_59 (and .def_58 A1))) (let ((.def_60 (or .def_59 .def_57))) (let ((.def_61 (= .def_35 .def_31))) (let ((.def_62 (not .def_61))) (let ((.def_63 (not A3))) (let ((.def_64 (and .def_4 .def_63))) (let ((.def_65 (or .def_64 .def_62))) (let ((.def_66 (= .def_65 .def_60))) (let ((.def_67 (not A19))) (let ((.def_68 (and A17 .def_67))) (let ((.def_69 (not .def_68))) (let ((.def_70 (and A16 A20))) (let ((.def_71 (not .def_70))) (let ((.def_72 (or .def_71 .def_69))) (let ((.def_73 (or A3 A18))) (let ((.def_74 (and A2 A12))) (let ((.def_75 (not .def_74))) (let ((.def_76 (or .def_75 .def_73))) (let ((.def_77 (and .def_76 .def_72))) (let ((.def_78 (not .def_77))) (let ((.def_79 (and .def_78 .def_66))) (let ((.def_80 (not A17))) (let ((.def_81 (not A21))) (let ((.def_82 (and .def_81 .def_80))) (let ((.def_83 (and A22 A20))) (let ((.def_84 (or .def_83 .def_82))) (let ((.def_85 (not .def_84))) (let ((.def_86 (or A22 A23))) (let ((.def_87 (not A0))) (let ((.def_88 (and A5 .def_87))) (let ((.def_89 (and .def_88 .def_86))) (let ((.def_90 (or .def_89 .def_85))) (let ((.def_91 (= .def_43 .def_45))) (let ((.def_92 (not .def_91))) (let ((.def_93 (or A15 .def_80))) (let ((.def_94 (not .def_93))) (let ((.def_95 (= .def_94 .def_92))) (let ((.def_96 (not .def_95))) (let ((.def_97 (not A22))) (let ((.def_98 (and .def_97 A13))) (let ((.def_99 (and .def_21 .def_81))) (let ((.def_100 (not .def_99))) (let ((.def_101 (or .def_100 .def_98))) (let ((.def_102 (and .def_101 .def_96))) (let ((.def_103 (or .def_102 .def_90))) (let ((.def_104 (and .def_103 .def_79))) (let ((.def_105 (not .def_104))) (let ((.def_106 (or .def_105 .def_56))) .def_106))))))))))))))))))))))))))))))))))))))))))))))))))))))))))))))))))))))))))))))))))))))))))))))))))))))))))))
(check-sat)
